db/data/207684922223591306030905150401107722567.z3.out
sat
-------------------
1.728973235
